c Sudoku solution
p cnf 729 0
121 0
133 0
184 0
216 0
243 0
335 0
378 0
391 0
383 0
439 0
446 0
465 0
528 0
542 0
553 0
587 0
596 0
176 0
623 0
636 0
668 0
695 0
515 0
748 0
766 0
356 0
825 0
926 0
886 0
874 0
494 0
473 0
488 0
952 0
993 0
898 0
713 0
863 0
261 0
832 0
534 0
571 0
569 0
689 0
672 0
938 0
118 0
237 0
258 0
224 0
197 0
162 0
914 0
754 0
967 0
945 0
817 0
731 0
729 0
981 0
979 0
611 0
412 0
427 0
451 0
319 0
322 0
841 0
859 0
149 0
155 0
657 0
644 0
347 0
364 0
777 0
785 0
792 0
275 0
282 0
299 0
